; benchmark generated from python API
(set-info :status unknown)
(declare-fun S_1 () Real)
(declare-fun S_3 () Real)
(declare-fun C () Real)
(declare-fun S_4 () Real)
(declare-fun S_0 () Real)
(declare-fun S_2 () Real)
(declare-fun L_0 () Real)
(declare-fun A_0 () Real)
(declare-fun A_4 () Real)
(declare-fun A_1 () Real)
(declare-fun A_3 () Real)
(declare-fun L0 () Real)
(declare-fun A_2 () Real)
(assert
 (let (($x37 (>= L0 0.0)))
 (let (($x499 (>= C 5.0)))
 (let (($x4619 (<= (+ (* 2.0 C) S_1 (* (- 1.0) S_4)) 0.0)))
 (let (($x1735 (not (<= 0.0 (+ A_3 (* (- 1.0) A_1) S_3 (* (- 1.0) S_4))))))
 (let (($x36 (>= L_0 L0)))
 (let (($x111 (>= S_1 S_0)))
 (let (($x114 (>= S_2 S_1)))
 (let (($x117 (>= S_3 S_2)))
 (let (($x120 (>= S_4 S_3)))
 (let (($x123 (>= A_2 A_1)))
 (let (($x124 (>= A_3 A_2)))
 (let (($x125 (>= A_4 A_3)))
 (and (<= (+ A_0 (* (- 1.0) L_0)) S_3) $x125 $x124 $x123 $x120 $x117 $x114 $x111 $x36 (or (<= (+ (* 3.0 C) S_0 (* (- 1.0) S_4)) 0.0) $x1735) (or $x1735 (<= (+ C S_2 (* (- 1.0) S_4)) 0.0)) (or (<= (+ (* (- 1.0) C) A_2 (* (- 1.0) A_1)) 0.0) $x4619) (or $x1735 $x4619) (<= (+ (* (- 5.0) C) (* (- 1.0) S_0) S_4) 0.0) $x499 $x37 (<= (+ L_0 S_0 (* (- 1.0) A_0)) 0.0) (<= (+ C S_0 (* (- 1.0) S_2)) 0.0) (<= (+ (* 2.0 C) S_0 (* (- 1.0) S_3)) 0.0) (<= (+ (* (- 1.0) C) (* (- 1.0) A_3) L_0 S_4) 0.0) (not (>= (+ L_0 (* (- 1.0) A_1) S_3) 0.0)) (<= (+ (* (- 1.0) C) L_0 S_1 (* (- 1.0) A_0)) 0.0) (<= (+ (* (- 2.0) C) (* (- 1.0) S_0) S_1) 0.0) (<= (+ C (* (- 1.0) S_3) S_1) 0.0) (<= (+ (* (- 2.0) C) (* (- 1.0) S_3) S_4) 0.0) (<= (+ (* (- 4.0) C) L_0 S_4 (* (- 1.0) A_0)) 0.0) (<= (+ (* (- 3.0) C) (* (- 1.0) S_2) S_4) 0.0) (<= (+ (* (- 3.0) C) L_0 S_3 (* (- 1.0) A_0)) 0.0) (<= (+ L_0 (* (- 1.0) A_4) S_4) 0.0) (<= (+ (* (- 3.0) C) (* (- 1.0) S_0) S_2) 0.0) (<= (+ (* (- 2.0) C) S_2 (* (- 1.0) A_0) L_0) 0.0) (<= (+ (* (- 2.0) C) S_3 (* (- 1.0) S_2)) 0.0) (<= (+ (* (- 2.0) C) (* (- 1.0) S_1) S_2) 0.0) (<= (+ (* (- 4.0) C) (* (- 1.0) S_0) S_3) 0.0) (<= (+ (* (- 4.0) C) (* (- 1.0) S_1) S_4) 0.0) (<= (+ (* (- 3.0) C) S_3 (* (- 1.0) S_1)) 0.0)))))))))))))))
(check-sat)
